
mapping with 16 threads...

 0:00:01.14 Mapping INCOV131-BL.extracted.fq.gz to NUC reference...

 0:07:16.87 Generating binary hit matrix.
0:07:16.91 Loading /labs/khatrilab/solomonb/covid/isb/optitype/INCOV131-BL_1.bam started. Number of HLA reads loaded (updated every thousand):
1K...2K...3K...4K...5K...6K...7K...8K...9K...10K...11K...12K...13K...14K...15K...16K...17K...18K...19K...20K...21K...22K...23K...24K...25K...26K...27K...28K...29K...30K...31K...32K...33K...34K...35K...36K...37K...38K...39K...40K...41K...42K...43K...44K...45K...46K...47K...48K...49K...50K...51K...52K...53K...54K...55K...56K...57K...58K...59K...60K...61K...62K...63K...64K...65K...66K...67K...68K...69K...70K...71K...72K...73K...74K...75K...76K...77K...78K...79K...80K...81K...82K...83K...84K...85K...86K...87K...88K...89K...90K...91K...92K...93K...94K...95K...96K...97K...98K...99K...100K...101K...102K...103K...104K...105K...106K...107K...108K...109K...110K...111K...112K...113K...114K...115K...116K...117K...118K...119K...120K...121K...122K...123K...124K...125K...126K...127K...128K...129K...130K...131K...132K...133K...134K...135K...136K...137K...138K...139K...140K...141K...142K...143K...144K...145K...146K...147K...148K...149K...150K...151K...152K...153K...154K...155K...156K...157K...158K...159K...160K...161K...162K...163K...164K...165K...166K...167K...
 0:08:16.57 167829 reads loaded. Creating dataframe...
0:25:54.84 Dataframes created. Shape: 167829 x 7339, hits: 49262664 (49278479), sparsity: 1 in 24.99

 0:27:04.06 temporary pruning of identical rows and columns

 0:27:07.46 Size of mtx with unique rows and columns: (2690, 1789)
0:27:07.46 determining minimal set of non-overshadowed alleles

 0:27:40.36 Keeping only the minimal number of required alleles (805,)

 0:27:41.15 Creating compact model...

starting ilp solver with 1 threads...

 0:29:52.36 Initializing OptiType model...
GLPSOL: GLPK LP/MIP Solver, v4.57
Parameter(s) specified in the command line:
 --write /tmp/tmpfds_PF.glpk.raw --wglp /tmp/tmpYYULFC.glpk.glp --cpxlp /tmp/tmp_l0SeN.pyomo.lp
Reading problem data from '/tmp/tmp_l0SeN.pyomo.lp'...
/tmp/tmp_l0SeN.pyomo.lp:128215: warning: lower bound of variable 'x7711' redefined
/tmp/tmp_l0SeN.pyomo.lp:128215: warning: upper bound of variable 'x7711' redefined
7710 rows, 4657 columns, 96570 non-zeros
2730 integer variables, all of which are binary
130945 lines were read
Writing problem data to '/tmp/tmpYYULFC.glpk.glp'...
122427 lines were written
GLPK Integer Optimizer, v4.57
7710 rows, 4657 columns, 96570 non-zeros
2730 integer variables, all of which are binary
Preprocessing...
1737 hidden covering inequaliti(es) were detected
7709 rows, 4656 columns, 96569 non-zeros
2730 integer variables, all of which are binary
Scaling...
 A: min|aij| =  1.000e+00  max|aij| =  4.000e+00  ratio =  4.000e+00
Problem data seem to be well scaled
Constructing initial basis...
Size of triangular part is 7709
Solving LP relaxation...
GLPK Simplex Optimizer, v4.57
7709 rows, 4656 columns, 96569 non-zeros
      0: obj =  -0.000000000e+00 inf =   4.000e+00 (4)
      4: obj =  -0.000000000e+00 inf =   0.000e+00 (0)
*   500: obj =   1.274666020e+05 inf =   0.000e+00 (1756) 1
*  1000: obj =   1.373843680e+05 inf =   0.000e+00 (1422)
*  1500: obj =   1.383672520e+05 inf =   0.000e+00 (1095)
*  2000: obj =   1.385588030e+05 inf =   0.000e+00 (922)
*  2500: obj =   1.387329960e+05 inf =   0.000e+00 (711)
*  3000: obj =   1.392282510e+05 inf =   0.000e+00 (213)
*  3213: obj =   1.393822500e+05 inf =   6.040e-14 (0)
OPTIMAL LP SOLUTION FOUND
Integer optimization begins...
+  3213: mip =     not found yet <=              +inf        (1; 0)
+  3213: >>>>>   1.393822500e+05 <=   1.393822500e+05   0.0% (1; 0)
+  3213: mip =   1.393822500e+05 <=     tree is empty   0.0% (0; 1)
INTEGER OPTIMAL SOLUTION FOUND
Time used:   0.9 secs
Memory used: 20.1 Mb (21074174 bytes)
Writing MIP solution to '/tmp/tmpfds_PF.glpk.raw'...
12369 lines were written

 0:30:05.92 Result dataframe has been constructed...
